c clasp version 2.1.1
c Reading from pb_300_05.cnf
c Solving...
s UNSATISFIABLE

c Models        : 0     
c Time          : 7.148s (Solving: 5.79s 1st Model: 0.00s Unsat: 5.79s)
c CPU Time      : 7.130s
c Choices       : 31719
c Conflicts     : 20444
c Restarts      : 2      (Average: 10221.50 Last: 13822)

c Variables     : 327522 (Eliminated: 101998 Frozen:    0)
c Constraints   : 399934 (Binary: 64.0% Ternary: 35.0% Other:  0.9%)
c Lemmas        : 20443  (Binary:  1.0% Ternary:  1.7% Other: 97.3%)
c   Conflict    : 20443  (Average Length: 66.6) 
c   Loop        : 0      (Average Length: 0.0) 
c   Other       : 0      (Average Length: 0.0)
c   Deleted     : 4832  
